SYSTEM = C3H4O2
ISMEAR = 0
SIGMA = 0.01
EDIFF = 1E-5
ENCUT = 520
ALGO = FAST
LREAL = Auto
NELM = 120
ISYM = 0

NWRITE = 0
LWAVE = .FALSE.
LCHARG = .FALSE.

NPAR = 2
