ATOMIC_SPECIES
C 12.01 default.upf
H 1.008 default.upf

LATTICE_CONSTANT
1

LATTICE_VECTORS
18.7146 0 0 #latvec1
0 18.9036 0 #latvec2
0 0 19.0926 #latvec3

ATOMIC_POSITIONS
Cartesian

C #label
0 #magnetism
2 #number of atoms
14.5201777088 13.2519919738 10.4056078753 1 1 1
16.5962771863 13.1474769912 9.15270878168 1 1 1

H #label
0 #magnetism
3 #number of atoms
14.5953548201 15.3662912376 10.6220696236 1 1 1
13.0415451373 12.0761094363 11.0711353964 1 1 1
18.1000205911 11.9102496547 8.36797145553 1 1 1
