ELECTRON_NUMBER
0.451242

ATOMIC_SPECIES
Pt 195 Pt_ONCV_PBE-1.0.upf
H1 1 H_ONCV_PBE-1.0.upf
H2 1 H_ONCV_PBE-1.0.upf
O1 16 O_ONCV_PBE-1.0.upf
O2 16 O_ONCV_PBE-1.0.upf

NUMERICAL_ORBITAL
Pt_gga_7au_100Ry_4s2p2d1f.orb
H_gga_6au_100Ry_2s1p.orb
H_gga_6au_100Ry_2s1p.orb
O_gga_7au_100Ry_2s2p1d.orb
O_gga_7au_100Ry_2s2p1d.orb

LATTICE_CONSTANT
1.88972612546

LATTICE_VECTORS
30.8879982253 0 0 #latvec1
0 14.0599993895 0 #latvec2
0 -7.0299996948 12.1763166485 #latvec3

ATOMIC_POSITIONS
Cartesian

Pt #label
0 #magnetism
100 #number of atoms
0 0 0 0 0 0
2.29590490956 1.40592963986 0.811795031477 0 0 0
4.53926416764 -0.0439339079683 1.54422524341 1 1 1
6.77408602349 -0.0141458710705 -0.0147053838551 1 1 1
0 2.81199987971 0 0 0 0
2.29590490956 4.21792951956 0.811795031477 0 0 0
4.55716740082 2.85695219086 1.55588217459 1 1 1
6.76085183997 2.77495776771 -0.0513459409094 1 1 1
0 5.62399975941 0 0 0 0
2.29590490956 7.02992939927 0.811795031477 0 0 0
4.59303725637 5.66801624814 1.65436344903 1 1 1
7.08752620975 5.5249266777 0.00256193370541 1 1 1
0 8.43599963911 0 0 0 0
2.29590490956 9.84192927897 0.811795031477 0 0 0
4.53643617351 8.426703586 1.64354635724 1 1 1
6.92741468481 1.34420371596 12.1206469574 1 1 1
0 11.2479995188 0 0 0 0
2.29590490956 12.6539291587 0.811795031477 0 0 0
4.52376934911 11.1524611548 1.62345233627 1 1 1
6.73121500819 4.18863824427 12.197916011 1 1 1
0 12.6539994587 2.43526333126 0 0 0
2.29992034933 -7.0299997e-05 3.24705836274 0 0 0
4.4926626357 -1.35635493312 4.03658677182 1 1 1
6.77495564972 -1.32112551133 2.36898854415 1 1 1
0 1.40599993985 2.43526333126 0 0 0
2.29590490956 2.81192957971 3.24705836274 0 0 0
4.51546099101 1.49122217061 3.9879980958 1 1 1
6.83516384618 1.50761149091 2.43883277654 1 1 1
0 4.21799981956 2.43526333126 0 0 0
2.29590490956 5.62392945941 3.24705836274 0 0 0
4.53102186613 4.26964047881 3.96823158829 1 1 1
6.88721736247 4.2884175842 2.40964945802 1 1 1
0 7.02999969926 2.43526333126 0 0 0
2.29590490956 8.43592933912 3.24705836274 0 0 0
4.50556441686 7.0392415912 4.07541434656 1 1 1
7.05212197885 6.9526916937 2.35723830638 1 1 1
0 9.84199957897 2.43526333126 0 0 0
2.29590490956 11.2479292188 3.24705836274 0 0 0
4.53958128908 9.78832699678 4.0038493137 1 1 1
6.85550105724 9.71321888417 2.30939644114 1 1 1
0 -2.81199987971 4.87052666253 0 0 0
2.29590490956 -1.40607023985 5.68232169401 0 0 0
4.58806673549 -2.796318074 6.48068514405 1 1 1
6.93199079306 -2.81825897413 4.58180301805 1 1 1
0 -0 4.87052666253 0 0 0
2.29590490956 1.40592963986 5.68232169401 0 0 0
4.59988912912 -0.0829645482151 6.44839254206 1 1 1
6.8385731957 0.0498780372569 4.74548964817 1 1 1
0 2.81199987971 4.87052666253 0 0 0
2.29590490956 4.21792951956 5.68232169401 0 0 0
4.51119712681 2.72260294946 6.42015385546 1 1 1
6.77724167259 2.82177066256 4.81818183912 1 1 1
0 5.62399975941 4.87052666253 0 0 0
2.29590490956 7.02992939927 5.68232169401 0 0 0
4.55533963767 5.62735539834 6.50226604503 1 1 1
6.92996584449 5.69073385166 4.8159685558 1 1 1
0 8.43599963911 4.87052666253 0 0 0
2.29590490956 9.84192927897 5.68232169401 0 0 0
4.4759941012 8.50159576706 6.52731350356 1 1 1
6.91975332412 8.43941420983 4.79072965587 1 1 1
0 9.84199957897 7.30578999379 0 0 0
2.29590490956 -2.8120701797 8.11758502527 0 0 0
4.52403959062 -4.15639507545 8.8522936383 1 1 1
7.02277983919 9.69792664046 7.35585399815 1 1 1
0 -1.40599993985 7.30578999379 0 0 0
2.29992034933 -7.0299997e-05 8.11758502527 0 0 0
4.58215984937 -1.38628003304 8.91573796744 1 1 1
6.96261082513 -1.59361726565 7.09456606096 1 1 1
0 1.40599993985 7.30578999379 0 0 0
2.29590490956 2.81192957971 8.11758502527 0 0 0
4.54481782559 1.41711263302 8.89317471639 1 1 1
6.93373690878 1.36352253322 7.14414841623 1 1 1
0 4.21799981956 7.30578999379 0 0 0
2.29590490956 5.62392945941 8.11758502527 0 0 0
4.61377011997 4.14362151717 8.91948817798 1 1 1
6.7829927138 4.12808672831 7.18316088493 1 1 1
0 7.02999969926 7.30578999379 0 0 0
2.29590490956 8.43592933912 8.11758502527 0 0 0
4.68961221876 7.12282123146 8.92166039557 1 1 1
7.02542085067 7.02624772528 7.34440090411 1 1 1
0 8.43599963911 9.74105332506 0 0 0
2.29590490956 -4.21807011955 10.5528483565 0 0 0
4.58125754665 -5.67895881558 11.3269507808 1 1 1
7.01970058423 -5.74543727661 9.75752199861 1 1 1
0 -2.81199987971 9.74105332506 0 0 0
2.29590490956 -1.40607023985 10.5528483565 0 0 0
4.67218415834 -2.92547125651 11.3143746185 1 1 1
6.98086412882 -2.94512058624 9.74292477949 1 1 1
0 -0 9.74105332506 0 0 0
2.29590490956 1.40592963986 10.5528483565 0 0 0
4.57909663561 -0.151541894196 11.3907582511 1 1 1
6.86626689179 0.0267131520326 9.67104976844 1 1 1
0 2.81199987971 9.74105332506 0 0 0
2.29590490956 4.21792951956 10.5528483565 0 0 0
4.59563159434 2.83578043483 11.2716395438 1 1 1
6.83783174033 2.79895898775 9.67615641643 1 1 1
0 5.62399975941 9.74105332506 0 0 0
2.29590490956 7.02992939927 10.5528483565 0 0 0
4.51016452114 5.55248711687 11.2022033803 1 1 1
7.02356676266 5.48973291357 9.66664724943 1 1 1

H1 #label
0 #magnetism
24 #number of atoms
8.39672151281 -0.113450072327 -0.267182133889 1 1 1
8.58456171248 5.31114534962 0.022686486262 1 1 1
7.80138653767 -0.164645101852 11.2336739749 1 1 1
8.47542761755 1.20804284064 12.4015960893 1 1 1
8.24338551677 3.93681330075 12.2259705246 1 1 1
8.2141353619 12.2497426721 2.43228336986 1 1 1
8.40998820494 1.36708720171 2.43563152847 1 1 1
8.42186563474 4.14802456846 2.58197480212 1 1 1
8.56278346298 7.05705533854 2.47377559379 1 1 1
8.38166847784 9.79696331979 2.27462699902 1 1 1
8.61358458075 -4.43296701962 7.2940519183 1 1 1
8.36773428023 -0.150836398864 4.67244917948 1 1 1
8.31557548303 2.75594125126 4.94716006959 1 1 1
8.45920779435 8.37927316627 5.16936227235 1 1 1
8.4341986564 12.2542943787 6.93045171847 1 1 1
8.4529408442 -2.73232051012 4.73116167135 1 1 1
8.4954970367 1.57462415133 7.32519472877 1 1 1
8.31576844202 4.32572822898 7.19350536465 1 1 1
8.54882575143 6.80827586808 7.24239849619 1 1 1
8.63344355313 -5.74883323403 9.87290985571 1 1 1
8.52225807103 -2.80354567752 9.83680922125 1 1 1
7.67208783603 -0.435410315576 8.13331682297 1 1 1
8.45211636721 2.54027767863 9.62962476611 1 1 1
8.5414473125 5.66098096807 9.6183090924 1 1 1

H2 #label
0 #magnetism
73 #number of atoms
8.51270768116 5.83728779954 4.91204528765 1 1 1
10.6254306034 4.77851714566 4.92278948238 1 1 1
10.6319392638 6.11836696182 5.79371770406 1 1 1
10.0856635415 4.24290783201 7.13425292468 1 1 1
11.4917681625 3.71593492883 7.42065871052 1 1 1
10.6973572129 8.5728417778 5.85065222337 1 1 1
10.6370279563 7.98130453498 7.29896659189 1 1 1
11.6255118342 9.34934716545 9.60337904475 1 1 1
10.1110649354 9.33008098321 9.56994579239 1 1 1
9.31534571095 6.01051922835 13.2242527538 1 1 1
10.7066994425 5.42078181424 12.5718967779 1 1 1
12.7216324933 4.67235016878 11.5892233017 1 1 1
11.4793720776 10.6748517063 -0.659315168951 1 1 1
11.5837361195 0.511625431075 5.88969936913 1 1 1
12.5201937772 0.879283761991 4.7826594344 1 1 1
11.5569963642 6.31015290203 1.29245885673 1 1 1
11.3657748272 5.94552374448 -0.198008873801 1 1 1
9.33950191458 -0.177423079595 10.2783550095 1 1 1
10.6971247171 -0.0906351569639 9.32891425851 1 1 1
10.5809483887 1.58023252193 10.1187524511 1 1 1
10.6981149015 2.79232967455 9.22091946113 1 1 1
10.9416071449 -2.89692335748 13.3831397346 1 1 1
9.40328472592 -3.52082264648 13.7285835423 1 1 1
12.5106355194 0.0580569086025 8.08234292315 1 1 1
11.5234272466 -0.946077496226 7.66547847144 1 1 1
12.3293994131 -2.9885576097 7.04851508124 1 1 1
11.0059611201 -3.20173338555 7.91067750757 1 1 1
10.7485998677 -1.49186686764 2.94264560656 1 1 1
11.4389211803 -0.911312477212 4.24464587345 1 1 1
11.1431967731 0.479207762482 0.626037651986 1 1 1
10.957783891 1.97137313689 0.997594936514 1 1 1
10.876657818 3.39949154027 3.29555740834 1 1 1
11.3050059417 2.45432116725 4.50312952765 1 1 1
10.8940009333 6.51076275053 3.4631947252 1 1 1
10.7476136442 7.89334775088 2.893560295 1 1 1
9.53255855814 9.60653430543 4.10020048484 1 1 1
10.5686244751 10.5340492966 4.80959989565 1 1 1
12.5576843452 11.1479591424 1.58860252324 1 1 1
12.6193614495 11.747494736 3.09978081222 1 1 1
13.4782543485 9.80831573848 3.48558962601 1 1 1
12.8097569968 8.67917013519 4.28346241412 1 1 1
14.1994701265 9.75101846655 7.35459419941 1 1 1
13.9586748393 9.82231489513 5.85286694386 1 1 1
13.92140783 7.0521218846 8.11295836808 1 1 1
12.9361637906 7.25888292144 6.81365295053 1 1 1
14.4482597127 6.6322183079 10.1075369771 1 1 1
14.0258621511 8.12231699761 9.80450213204 1 1 1
14.4905267508 4.16806565354 10.5379744194 1 1 1
14.7496953766 4.98724709239 11.866547875 1 1 1
12.5878282078 16.0442686419 -0.91544793753 1 1 1
13.045252615 17.4752794679 -1.45146850703 1 1 1
14.9637269322 6.40892203395 13.406170108 1 1 1
14.8136027759 12.0573792308 1.87647997347 1 1 1
14.1367708933 0.594239913732 9.28621675594 1 1 1
13.9231508436 -1.0052338199 9.47821267403 1 1 1
14.7523928644 -0.717498923718 7.30236488329 1 1 1
14.8388878034 -1.87821122951 6.30775647631 1 1 1
13.5807678056 2.81216977563 8.79865622083 1 1 1
12.7825476065 2.23583884089 10.0640670441 1 1 1
13.4685428527 3.67033633075 6.66758885138 1 1 1
13.2929547133 4.96687463269 7.68785387237 1 1 1
14.2798686939 1.8684645306 4.85666294766 1 1 1
14.5599523587 0.240411895418 5.12097948156 1 1 1
13.8684654364 0.795441322373 2.68773656711 1 1 1
13.1589939743 1.14432963229 1.26563309282 1 1 1
14.2693190419 4.27816629431 4.88056541294 1 1 1
12.8792863483 3.51639995977 4.83036493637 1 1 1
14.4046665598 4.47164833297 -0.18763378727 1 1 1
13.1781829787 5.36630452779 -0.43154430397 1 1 1
14.9204973686 2.70908089465 1.11114399251 1 1 1
15.6804216604 3.94101573418 1.72211471306 1 1 1
14.7955308198 6.25130453872 5.77706336929 1 1 1
14.4705427278 6.31218170799 4.32287220606 1 1 1

O1 #label
0 #magnetism
1 #number of atoms
10.2018814701 5.67823400387 4.98582210852 1 1 1

O2 #label
0 #magnetism
35 #number of atoms
10.5186591384 3.49781515031 7.60744968443 1 1 1
10.9601680128 7.74243263099 6.42549106152 1 1 1
10.8541912303 9.38847729439 8.95718087684 1 1 1
10.3005923521 6.0637218716 13.1853987941 1 1 1
11.8900620692 4.33647845932 12.0688182414 1 1 1
11.5788142176 0.616924977089 4.91875494178 1 1 1
11.7914639379 5.6250653844 0.625911519197 1 1 1
10.3139172782 -0.261236003812 10.2461328178 1 1 1
10.786236569 2.54042180734 10.1721314249 1 1 1
10.4092914189 3.42078428756 1.66924517632 1 1 1
11.6099062535 0.0417862241907 7.73448566286 1 1 1
11.3845257725 -2.72704933609 7.14673188291 1 1 1
11.1454705189 12.2937268082 3.76659131173 1 1 1
11.5959975763 1.35048469517 0.486752759235 1 1 1
11.3690693763 3.36773397352 4.21505097855 1 1 1
11.3525747648 7.14637869357 2.86692909889 1 1 1
10.4354373831 9.62232851283 4.54336671549 1 1 1
13.1550298106 11.1941031028 2.42099204788 1 1 1
13.7149463418 9.06421748538 4.19943047101 1 1 1
13.8739863145 10.353922855 6.67061187476 1 1 1
13.6165123907 6.73150065437 7.1810887138 1 1 1
14.5825878708 7.38172417085 9.42546827959 1 1 1
14.3118013242 5.03328072887 10.9406691653 1 1 1
12.9735904909 9.43501032796 10.4637281469 1 1 1
15.298779409 5.50084885166 13.3147532504 1 1 1
14.2027801734 -0.338507985887 8.86574866093 1 1 1
14.8156108728 -0.896771068348 6.32184172039 1 1 1
13.6112342321 2.23107638738 9.62210676358 1 1 1
13.2560417887 3.95972696803 7.60673245946 1 1 1
14.2665888362 0.910715006419 4.47262028215 1 1 1
14.0256798558 0.894503450671 1.71707190122 1 1 1
13.8211516714 3.4134197562 5.12937930918 1 1 1
13.7938362892 4.84241775313 -0.956739009999 1 1 1
15.2928704961 3.596210143 0.90319009522 1 1 1
15.0673086097 5.85835791648 4.93610506853 1 1 1
