INPUT_PARAMETERS
#Parameters (General)
DP_model            C2H3_compress.pb
calculation         MD
steps               10000
#Parameters (System)
T                   79
ntype               2
element_type        C H
#Parameters (Molecular Dynamics)
Delta_t             0.1
