ATOMIC_SPECIES
C 12.01 default.upf
H 1.008 default.upf

LATTICE_CONSTANT
1

LATTICE_VECTORS
18.7146 0 0 #latvec1
0 18.9036 0 #latvec2
0 0 19.0926 #latvec3

ATOMIC_POSITIONS
Cartesian

C #label
0 #magnetism
2 #number of atoms
9.39486816171 7.34794256152 15.4328542016 1 1 1
10.378955338 5.42247653782 16.5745486943 1 1 1

H #label
0 #magnetism
3 #number of atoms
7.97078300776 8.42804974526 16.4398225764 1 1 1
10.1527578221 8.08343098126 13.6160791648 1 1 1
11.5832240675 3.77527173376 16.4183820529 1 1 1
