INPUT_PARAMETERS
#Parameters (General)
pseudo_dir      **/ABACUS/SG15_ONCV_v1.0_upf
ntype           3
nbands          16
force           1
calculation     scf
start_charge    file
out_charge      1
basis_type      lcao
ks_solver       genelpa
#Parameters (Accuracy)
ecutwfc         60
niter           50
ethr            1e-5
symmetry        1
