ATOMIC_SPECIES
C 12.01 C_ONCV_PBE-1.0.upf
H 1.008 H_ONCV_PBE-1.0.upf
O 16 O_ONCV_PBE-1.0.upf

NUMERICAL_ORBITAL
/gpfs/share/home/1800011731/ABACUS/Orb_SG15_DZP_E60_Full_v1.0/C/C_gga_8au_60Ry_2s2p1d.orb
/gpfs/share/home/1800011731/ABACUS/Orb_SG15_DZP_E60_Full_v1.0/H/H_gga_8au_60Ry_2s1p.orb
/gpfs/share/home/1800011731/ABACUS/Orb_SG15_DZP_E60_Full_v1.0/O/O_gga_7au_60Ry_2s2p1d.orb

LATTICE_CONSTANT
1.0

LATTICE_VECTORS
18.714556 0.000000 0.000000
0.000000 18.903592 0.000000
0.000000 0.000000 19.092628

ATOMIC_POSITIONS
Cartesian

C
0
3
9.451795841210 9.451795841210 9.451795841210 1 1 1
9.451795841210 9.451795841210 12.088302646503 1 1 1
11.736382419660 9.451795841210 13.406999054820 1 1 1

H
0
4
7.651742722117 9.452495841210 8.412092627599 1 1 1
7.651742722117 9.451208506616 13.128099810964 1 1 1
11.735910018904 9.451683742911 15.485789413989 1 1 1
13.667525897921 9.454887712665 9.247847637051 1 1 1

O
0
2
13.897095085066 9.453082608696 12.158915689981 1 1 1
11.735611153119 9.454061625709 8.132775047259 1 1 1
