INPUT_PARAMETERS
#Parameters (General)
steps               100000
calculation         HMC
OUTPUT              ke pe etotal ne
#Parameters (System)
T                   300
ntype               4
element_type        Pt H1 H2 O
element_index       0 1 1 2
Wall                xhi
W_pos               33
#Parameters (Hamiltonian Monte Carlo)
Delta_t             1.0
#Parameters (Grand Canonical Ensemble)
DP_model_prefix     PtHH2O
mu                  -2.5
