ELECTRON_NUMBER
0.54

ATOMIC_SPECIES
Pt 195 Pt_ONCV_PBE-1.0.upf
H1 1 H_ONCV_PBE-1.0.upf
H2 0.5 H_ONCV_PBE-1.0.upf
O 8 O_ONCV_PBE-1.0.upf

NUMERICAL_ORBITAL
Pt_gga_7au_100Ry_4s2p2d1f.orb
H_gga_6au_100Ry_2s1p.orb
O_gga_7au_100Ry_2s2p1d.orb

LATTICE_CONSTANT
1.88972612546

LATTICE_VECTORS
30.8879982253 0 0 #latvec1
0 14.0599993895 0 #latvec2
0 -7.0299996948 12.1763166485 #latvec3

ATOMIC_POSITIONS
Cartesian

Pt #label
0 #magnetism
100 #number of atoms
0.041561 0.0368532 0.0756274 0 0 0
2.25265 1.471 0.790547 0 0 0
4.61203730273 0.09753275667 1.62620448113 1 1 1
6.94809070012 6.88497909162 12.1708925424 1 1 1
0.0547021 -4.22023 12.1667 0 0 0
2.28524 4.26741 0.815822 0 0 0
4.53535476965 2.93512423876 1.68453439324 1 1 1
6.7343081178 2.70250275078 0.136636414725 1 1 1
0.0476001 -1.3769296948 12.1758429335 0 0 0
2.28807 7.05687 0.894907 0 0 0
4.6255143103 5.70329060006 1.67191149096 1 1 1
6.8382176874 -1.39339404783 12.2204997911 1 1 1
0.0476001 1.3838 12.1429 0 0 0
2.23338 9.78932 0.793398 0 0 0
4.5834044055 8.55010427559 1.67393350339 1 1 1
6.89489765573 8.38834665987 -0.164991769488 1 1 1
0.0476001 11.2904 0.00977309 0 0 0
2.33364 12.5645 0.87551 0 0 0
4.58644647007 11.2056821056 1.69315725738 1 1 1
6.83586900438 11.1480820956 0.015831968117 1 1 1
0.0180588 12.6121 2.36031 0 0 0
2.37917 0.0162223 3.27761 0 0 0
4.58592137391 -1.43678990059 4.00246200123 1 1 1
7.01772823078 12.6142163293 2.41334681734 1 1 1
0.102355 1.40088 2.48472 0 0 0
2.28256 2.77234 3.23575 0 0 0
4.60836136887 1.47522988908 4.15843475085 1 1 1
6.90072311617 1.27775143407 2.46232573249 1 1 1
0.0242184 4.22307 2.41783 0 0 0
2.31249 5.62567 3.31085 0 0 0
4.60229316534 4.17485876918 4.19385167539 1 1 1
6.91171073608 4.20563820814 2.52941884807 1 1 1
0.0590412 7.00399 2.39864 0 0 0
2.35877 8.45786 3.23739 0 0 0
4.52951918325 7.02091128122 4.2043335015 1 1 1
6.92965032857 6.90946846393 2.42134866335 1 1 1
0.0681131 9.83755 2.41424 0 0 0
2.2672 11.232 3.26335 0 0 0
4.52261985037 9.83046712755 4.04021363273 1 1 1
7.00215209787 9.66917312178 2.39360471316 1 1 1
0.0421155 -2.76982 4.88106 0 0 0
2.25389 -1.39404 5.73159 0 0 0
4.5067711618 -2.81284994597 6.5793485471 1 1 1
6.72874666688 -2.86024327004 4.86558284851 1 1 1
0.0306017747 0.0044792 4.87783 0 0 0
2.27458 1.35655 5.69376 0 0 0
4.5321348002 -0.0830147428797 6.3687357778 1 1 1
7.00738285243 -0.100988664796 4.72554892422 1 1 1
0.0549173 2.81851 4.81467 0 0 0
2.2933 4.2453 5.7326 0 0 0
4.47602111985 2.71979180171 6.56673789979 1 1 1
7.01059160081 2.98308641734 4.91977405073 1 1 1
0.0101017747 5.63332 4.85658 0 0 0
2.2706 6.99725 5.73849 0 0 0
4.6074444494 5.64631992245 6.50539605265 1 1 1
6.92332926566 5.68945066926 4.91067930154 1 1 1
0.0053017747 8.39928 4.87182 0 0 0
2.21358 9.89311 5.72826 0 0 0
4.48916248314 8.56594386899 6.57306848726 1 1 1
6.71709234857 8.36253490094 5.03732961896 1 1 1
0.0681131 9.8172893895 7.33438 0 0 0
2.23271 -2.81065 8.15497 0 0 0
4.67188786958 -4.22291622444 9.04701632562 1 1 1
6.82902675317 -4.23950117869 7.40735039457 1 1 1
0.0029017747 -1.39551 7.3064 0 0 0
2.33343 -0.0309005 8.11422 0 0 0
4.63830915194 -1.33254053972 9.02135905826 1 1 1
6.96146577018 -1.4458017072 7.32143806915 1 1 1
0.0928826 1.37249 7.3106 0 0 0
2.29262 2.8221 8.14233 0 0 0
4.59051183283 1.42389622742 8.90949147339 1 1 1
6.70986324925 1.42191971556 7.21975276683 1 1 1
0.0686718 4.2371 7.25061 0 0 0
2.32972 5.62493 8.07939 0 0 0
4.48579613951 4.22320797118 8.91548141777 1 1 1
6.91191661341 4.27117022567 7.27849446221 1 1 1
0.0681131 6.95659 7.3722 0 0 0
2.25529 8.47016 8.16515 0 0 0
4.53198794365 7.13062849969 8.94943115663 1 1 1
6.8504039518 7.04628948333 7.34797463999 1 1 1
0.0681131 8.38535 9.75432 0 0 0
2.27075 -4.22415 10.6039 0 0 0
4.51978462768 -5.63666382099 11.4832711408 1 1 1
6.92368925113 -5.6778873228 9.81980925716 1 1 1
0.0487347 -2.75118 9.68925 0 0 0
2.27752 -1.44861 10.5586 0 0 0
4.5332944758 -2.83944307933 11.3287844033 1 1 1
6.8772456461 -2.87973659608 9.79422417282 1 1 1
0.0681131 0.0124132 9.75344 0 0 0
2.29595 1.44282 10.486 0 0 0
4.4807093327 0.0577780385079 11.4243323826 1 1 1
6.99843944644 -0.0886946968051 9.76588700945 1 1 1
0.0681131 2.90472 9.71871 0 0 0
2.29255 4.22849 10.5409 0 0 0
4.56581490401 2.80445276098 11.4264906395 1 1 1
6.86842967213 2.94159546072 9.69835921225 1 1 1
0.0681131 5.68441 9.75088 0 0 0
2.26874 7.13064 10.5509 0 0 0
4.50850377914 5.65090457834 11.3993174749 1 1 1
6.96224266432 5.56137852756 9.6700626367 1 1 1

H1 #label
0 #magnetism
25 #number of atoms
8.41077034769 -12.6682270532 12.1546382953 1 1 1
8.57913251969 -8.65019917573 14.6532663006 1 1 1
8.35536663426 13.9232786472 -4.99500830096 1 1 1
8.53646971859 5.51881804489 -4.58919145366 1 1 1
8.52127505118 16.895953886 14.8957700309 1 1 1
8.45733453341 28.2111137729 14.3981839395 1 1 1
7.90944383032 2.69170235948 1.94659528464 1 1 1
8.58452008799 20.6199653608 -2.40905091319 1 1 1
7.93581239763 19.4074679148 17.1713079691 1 1 1
8.36369791283 11.383457242 -4.69585334014 1 1 1
8.37460424972 -9.75302218283 -2.86023925644 1 1 1
7.61273738844 -5.98976293806 3.54441300853 1 1 1
8.43001255139 10.1604595531 -2.41449960113 1 1 1
7.98889166256 15.4828929401 4.69006007472 1 1 1
8.5287959928 5.55447173539 9.79482041034 1 1 1
7.69294250348 0.18825192211 6.64698236935 1 1 1
8.15496301212 -11.397566134 -0.156930870498 1 1 1
8.51552406162 6.93277803881 12.1122258349 1 1 1
8.41484759459 -9.75304017058 12.3110540554 1 1 1
7.62541145998 15.5504457246 8.99578049559 1 1 1
8.4812160543 -5.79303351061 9.70796241231 1 1 1
7.98434364416 -2.85991480115 16.210201709 1 1 1
7.82182761123 -11.5474699715 -6.16979211587 1 1 1
8.41230289651 5.68215470963 24.5342330981 1 1 1
8.45786612723 6.03220781113 5.0034605329 1 1 1

H2 #label
0 #magnetism
72 #number of atoms
9.62259898347 7.60691396508 5.67746112633 1 1 1
10.5011684897 8.7931271179 5.27126195753 1 1 1
11.747280449 6.84916529912 6.09923446914 1 1 1
12.9235223109 7.46455299983 7.04589827309 1 1 1
10.6480778957 11.2888143496 6.02506887476 1 1 1
9.40329328215 10.6706181531 5.45053315413 1 1 1
11.830065281 4.90521729522 9.32852216729 1 1 1
11.9368861099 5.65358721371 7.95963761102 1 1 1
11.0910254505 7.80765507169 12.6980746164 1 1 1
11.2944763406 8.34012748036 11.3015878186 1 1 1
11.1115417274 4.46384417004 12.1038085275 1 1 1
11.6673208133 5.91047024464 11.8441227308 1 1 1
10.7949645747 5.74763127443 -1.24950802144 1 1 1
9.35918316002 4.89280398166 -0.952953334167 1 1 1
13.0660466486 -0.660220645469 10.380899985 1 1 1
14.2299140264 -1.65188814614 11.0339614539 1 1 1
9.5428935426 0.954357023572 7.9514974006 1 1 1
10.9243257273 1.33164011061 7.34054275521 1 1 1
9.99325372724 9.38004373314 9.5272700322 1 1 1
10.8155832338 10.4651347515 10.2407540744 1 1 1
11.4768816018 0.671369312114 11.1021487737 1 1 1
11.1376550786 0.378224049932 9.54862597279 1 1 1
14.9470258721 -1.89207718041 13.2391616428 1 1 1
14.9240610774 -3.35779838149 12.4572024501 1 1 1
10.8000275426 1.13686452952 2.68247667833 1 1 1
9.43408125019 14.4455589203 2.19959982662 1 1 1
12.0810542471 -6.07590603865 1.19910404966 1 1 1
11.1634914215 9.28677282547 0.837068130412 1 1 1
10.5389867153 4.47441199844 1.05240987142 1 1 1
9.72106433576 5.03905842742 2.23364002855 1 1 1
11.7227895847 6.12215876662 2.93631155214 1 1 1
11.2769190476 7.31676233667 3.73986943204 1 1 1
10.773428085 10.9619917464 1.90557018125 1 1 1
9.47251074694 10.1856075139 1.43402802294 1 1 1
10.8381414953 12.830838558 2.69469439661 1 1 1
10.899632375 11.7732135939 4.0197763303 1 1 1
14.6698607703 23.2127819188 -1.39335374003 1 1 1
14.538340761 21.8057507714 -2.23339572417 1 1 1
15.4606546314 13.7897036719 5.50168435554 1 1 1
14.0389830154 13.4640045117 5.86034046571 1 1 1
13.4313847327 9.75363751587 8.00570680043 1 1 1
12.0914745587 9.14199312642 8.63641370423 1 1 1
13.8406741641 12.0193914162 8.81278772354 1 1 1
14.2259923903 12.0543645813 7.24042542098 1 1 1
14.2912991406 8.90211707962 14.1012715327 1 1 1
13.6944174513 8.37479758557 12.7746809482 1 1 1
13.9409941809 -3.13459929888 3.60203173281 1 1 1
14.9573764006 -2.51834830499 4.53383533625 1 1 1
13.9640237513 20.7077004638 2.45761080063 1 1 1
15.2992355915 7.41914481284 1.97974617682 1 1 1
13.1170969576 9.62514420342 24.4887472294 1 1 1
13.4657757383 17.9882065533 11.7766357255 1 1 1
15.3077487886 -10.0021973443 5.88186291391 1 1 1
15.1414813397 -11.1645445491 6.88918373801 1 1 1
9.79556919231 3.4817980017 5.96264593876 1 1 1
10.9428145754 3.77340783423 6.94415088092 1 1 1
11.0574952753 -0.912501997208 7.59408444068 1 1 1
12.2017013299 -2.00444112881 7.58771878777 1 1 1
13.4086424459 3.60222890944 8.22466531884 1 1 1
14.205060594 2.29919791833 8.69511073159 1 1 1
13.1852290681 1.56156778758 6.52180508788 1 1 1
13.2250680298 1.19610614379 4.99749468732 1 1 1
12.7279458208 2.53525187725 3.46448447508 1 1 1
13.8873039349 3.55129599161 3.70799272844 1 1 1
16.2638101272 -5.10037380661 17.3005226529 1 1 1
15.7890061814 -5.75242012231 15.9255561349 1 1 1
15.3632812246 9.61468511091 2.52910607982 1 1 1
15.1921681452 9.60101474606 0.969792915246 1 1 1
11.2350376162 2.61390949283 4.65685463479 1 1 1
10.8785079638 3.28507213328 3.24844986918 1 1 1
14.8786297756 5.73455187046 4.23830399601 1 1 1
13.6167161468 5.74914204016 5.07274241195 1 1 1

O #label
0 #magnetism
36 #number of atoms
10.4432456932 7.83174343095 5.19439685771 1 1 1
12.5768362741 6.63703586216 6.61104962962 1 1 1
10.3791624729 10.5714155295 5.39180451968 1 1 1
11.6552861953 4.79497186957 8.37953271555 1 1 1
11.7281387575 7.78175833896 11.9814162727 1 1 1
11.7961699262 4.94946788898 11.5876562723 1 1 1
10.3871376401 4.84806319948 -0.838524339326 1 1 1
13.9304580671 -1.06020521721 10.2414407278 1 1 1
10.4858068651 0.796645468842 8.11654322516 1 1 1
10.8906738253 9.56422827202 9.88039854162 1 1 1
11.5289002999 -0.0246728912541 10.3862692993 1 1 1
15.0450393786 -2.37493296633 12.3776776506 1 1 1
10.4681043775 0.433429016014 2.06368005102 1 1 1
11.8315939209 8.54685839196 0.435447437071 1 1 1
10.4701509727 4.4740781937 2.07245822214 1 1 1
11.9363526096 7.06495135592 3.06886264233 1 1 1
10.3396697137 10.4684791029 1.10383044547 1 1 1
11.1996820575 11.9021286418 3.06270814259 1 1 1
14.8939873785 22.8198754713 -2.2365962513 1 1 1
14.8681129451 13.0119493985 5.73611089671 1 1 1
12.8780089736 8.91872044498 8.09553867725 1 1 1
13.8355689647 11.4979710574 7.95336191465 1 1 1
14.5560623314 8.64808859059 13.1573825864 1 1 1
14.8385922833 -3.21859693758 3.88775287884 1 1 1
14.9532944232 20.5531308446 2.34961666759 1 1 1
13.9041874381 10.1156648242 24.2011618126 1 1 1
15.8161060649 -10.747648743 6.2716860595 1 1 1
10.6656910286 3.18601571013 6.21283895614 1 1 1
11.2050638646 -1.89949140981 7.5077029102 1 1 1
13.7623134678 2.74868605408 7.90498027236 1 1 1
12.800479444 0.824309145029 5.88604149626 1 1 1
13.7578075683 2.65661731097 3.38305332835 1 1 1
16.3128312631 -5.87971096583 16.7277090639 1 1 1
15.6897748724 9.19979029084 1.7054442808 1 1 1
11.3149129209 2.546818589 3.66415705844 1 1 1
14.433973593 5.20269866173 4.90356615087 1 1 1
