INPUT_PARAMETERS
#Parameters (General)
DP_model            C2H3_compress.pb
calculation         HMC
steps               200000
OUTPUT              ke pe etotal
#Parameters (System)
T                   79
ntype               2
element_type        C H
#Parameters (Hamiltonian Monte Carlo)
Delta_t             2.8
