INPUT_PARAMETERS
#Parameters (General)
steps               100000
OUTPUT              ke pe etotal ne rc mf
#Parameters (System)
T                   300
ntype               4
element_type        Pt H1 H2 O
element_index       0 1 1 2
reaction_coordinate -2.10
constraint_atom     55 124 197
Wall                xhi
W_pos               33
#Parameters (Constrained Hamiltonian Monte Carlo)
Delta_t             1.0
#Parameters (Grand Canonical Ensemble)
DP_model_prefix     compressed_
mu                  -2.5
