ATOMIC_SPECIES
Ar 1 default.upf

LATTICE_CONSTANT
1.05

LATTICE_VECTORS
4.0 0.0 0.0 #latvec1
0.0 4.0 0.0 #latvec2
0.0 0.0 4.0 #latvec3

ATOMIC_POSITIONS
Cartesian

Ar #label
0 #magnetism
64 #number of atoms
0.00840188 0.00394383 0.00783099 1 1 1
0.0079844 0.00911647 1.00198 1 1 1
0.00335223 0.0076823 2.00278 1 1 1
0.0055397 0.00477397 3.00629 1 1 1
0.00364784 1.00513 0.0095223 1 1 1
0.00916195 1.00636 1.00717 1 1 1
0.00141603 1.00607 2.00016 1 1 1
0.00242887 1.00137 3.00804 1 1 1
0.00156679 2.00401 0.0012979 1 1 1
0.00108809 2.00999 1.00218 1 1 1
0.00512932 2.00839 2.00613 1 1 1
0.00296032 2.00638 3.00524 1 1 1
0.00493583 3.00973 0.00292517 1 1 1
0.00771358 3.00527 1.0077 1 1 1
0.00400229 3.00892 2.00283 1 1 1
0.00352458 3.00808 3.00919 1 1 1
1.0007 0.00949327 0.00525995 1 1 1
1.00086 0.00192214 1.00663 1 1 1
1.0089 0.00348893 2.00064 1 1 1
1.0002 0.00457702 3.00063 1 1 1
1.00238 1.00971 0.00902208 1 1 1
1.00851 1.00267 1.0054 1 1 1
1.00375 1.0076 2.00513 1 1 1
1.00668 1.00532 3.00039 1 1 1
1.00438 2.00932 0.0093081 1 1 1
1.00721 2.00284 1.00739 1 1 1
1.0064 2.00354 2.00688 1 1 1
1.00166 2.0044 3.0088 1 1 1
1.00829 3.0033 0.00228968 1 1 1
1.00893 3.0035 1.00687 1 1 1
1.00956 3.00589 2.00657 1 1 1
1.00859 3.0044 3.00924 1 1 1
2.00398 0.00814767 0.00684219 1 1 1
2.00911 0.00482491 1.00216 1 1 1
2.0095 0.00920128 2.00148 1 1 1
2.00881 0.00641081 3.00432 1 1 1
2.0062 1.00281 0.00786002 1 1 1
2.00307 1.00447 1.00226 1 1 1
2.00188 1.00276 2.00556 1 1 1
2.00417 1.0017 3.00907 1 1 1
2.00103 2.00126 0.00495444 1 1 1
2.0076 2.00985 1.00935 1 1 1
2.00684 2.00383 2.0075 1 1 1
2.00369 2.00294 3.00232 1 1 1
2.00584 3.00244 0.0015239 1 1 1
2.00732 3.00125 1.00793 1 1 1
2.00164 3.00745 2.00075 1 1 1
2.0095 3.00053 3.00522 1 1 1
3.00176 0.00240062 0.00797798 1 1 1
3.00733 0.00656564 1.00967 1 1 1
3.00639 0.00759735 2.00093 1 1 1
3.00135 0.0052021 3.00078 1 1 1
3.0007 1.00205 0.0046142 1 1 1
3.0082 1.00573 1.00756 1 1 1
3.00052 1.00158 2.01 1 1 1
3.00204 1.0089 3.00125 1 1 1
3.00998 2.00054 0.0087054 1 1 1
3.00072 2.00004 1.00923 1 1 1
3.00594 2.0018 2.00163 1 1 1
3.00392 2.00913 3.0082 1 1 1
3.00359 3.00552 0.0057943 1 1 1
3.00453 3.00687 1.001 1 1 1
3.00531 3.00757 2.00304 1 1 1
3.00531 3.00757 2.931611 1 1 1