INPUT_PARAMETERS
#Parameters (General)
DP_model            C2H3_compress.pb
steps               200000
calculation         CMC
#Parameters (System)
T                   79
ntype               2
element_type        C H
reaction_coordinate 0.60
constraint_atom     1 2 0
#Parameters (Constrained Monte Carlo)
radial              0.3
MC_theta_step       0.1309
MC_phi_step         0.3927
